tsp_instances/TSP20/instance97.tsp
NODE_COORD_SECTION
0 126 142
1 40 187
2 66 89
3 135 8
4 72 194
5 106 101
6 25 142
7 182 111
8 146 129
9 163 180
10 168 100
11 189 190
12 53 12
13 31 172
14 184 88
15 128 61
16 116 137
17 10 43
18 124 107
19 71 5
