tsp_instances/TSP20/instance97.opt.tour
TOUR_SECTION
1
9
11
15
8
12
10
5
2
14
7
3
18
13
20
4
16
6
19
17
-1